20
18	395	448	96	100
9	145	179	51	64
32	227	167	71	17
42	161	483	81	68
8	99	82	54	78
13	319	395	66	99
10	392	301	81	18
44	344	109	61	36
44	320	76	93	70
12	249	43	51	78
39	66	148	80	10
25	106	432	97	92
15	343	139	33	13
49	493	480	85	68
15	491	44	99	96
32	380	498	79	65
25	469	169	21	71
29	0	208	69	64
49	290	83	98	99
28	84	32	21	13
